data/benchmarks/bayes/90-10-5-q.cnf
p cnf 460 405
c weights 0.796661 0.20333900000000005 1 1 1 1 1 1 1 1 1 1 1 1 1 1 1 1 1 1 1 1 1 1 1 1 1 1 1 1 1 1 1 1 1 1 1 1 1 1 1 1 1 1 1 1 1 1 1 1 1 1 1 1 1 1 1 1 1 1 1 1 1 1 1 1 1 1 1 1 1 1 1 1 1 1 1 1 1 1 1 1 1 1 1 1 1 1 1 1 1 1 1 1 1 1 1 1 1 1 1 1 1 1 1 1 1 1 1 1 1 1 1 1 1 1 1 1 1 1 1 1 1 1 1 1 1 1 1 1 1 1 1 1 1 1 1 1 1 1 1 1 1 1 1 1 1 1 1 1 1 1 1 1 1 1 1 1 1 1 1 1 1 1 1 1 1 1 1 1 1 1 1 1 1 1 1 1 1 1 1 1 1 1 1 1 1 1 1 1 1 1 1 1 1 1 1 1 1 1 0.5 0.5 0.5 0.5 0.5 0.5 0.5 0.5 0.5 0.5 0.5 0.5 0.5 0.5 0.5 0.5 0.892514 0.10748599999999997 0.814677 0.18532300000000002 0.5 0.5 0.5 0.5 0.5 0.5 0.5 0.5 0.5 0.5 0.5 0.5 0.5 0.5 0.5 0.5 0.5 0.5 0.5 0.5 0.5 0.5 0.5 0.5 0.5 0.5 0.5 0.5 0.5 0.5 0.5 0.5 0.5 0.5 0.5 0.5 0.5 0.5 0.5 0.5 0.5 0.5 0.5 0.5 0.5 0.5 0.5 0.5 0.5 0.5 0.5 0.5 0.5 0.5 0.5 0.5 0.5 0.5 0.5 0.5 0.5 0.5 0.5 0.5 0.5 0.5 0.5 0.5 0.5 0.5 0.5 0.5 0.5 0.5 0.5 0.5 0.188055 0.811945 0.86986 0.13014000000000003 0.96934 0.03066000000000002 0.940452 0.059548000000000045 0.5 0.5 0.5 0.5 0.5 0.5 0.5 0.5 0.5 0.5 0.5 0.5 0.5 0.5 0.5 0.5 0.5 0.5 0.5 0.5 0.5 0.5 0.5 0.5 0.5 0.5 0.5 0.5 0.5 0.5 0.5 0.5 0.5 0.5 0.5 0.5 0.5 0.5 0.5 0.5 0.5 0.5 0.5 0.5 0.5 0.5 0.5 0.5 0.5 0.5 0.5 0.5 0.5 0.5 0.5 0.5 0.5 0.5 0.5 0.5 0.5 0.5 0.5 0.5 0.5 0.5 0.5 0.5 0.5 0.5 0.5 0.5 0.5 0.5 0.5 0.5 0.5 0.5 0.5 0.5 0.5 0.5 0.5 0.5 0.330855 0.669145 0.0736472 0.9263528 0.5 0.5 0.5 0.5 0.5 0.5 0.5 0.5 0.5 0.5 0.5 0.5 0.5 0.5 0.5 0.5 0.5 0.5 0.5 0.5 0.5 0.5 0.5 0.5 0.5 0.5 0.5 0.5 0.5 0.5 0.5 0.5 0.5 0.5 0.5 0.5 0.5 0.5 0.5 0.5 0.5 0.5 0.5 0.5 0.5 0.5 0.5 0.5 0.5 0.5 0.5 0.5 0.5 0.5 0.5 0.5 0.5 0.5 0.5 0.5 0.5 0.5 0.5 0.5 0.470144 0.529856 0.148536 0.851464 0.253287 0.746713 0.466955 0.533045 0.5 0.5 0.5 0.5 0.989307 0.010692999999999953 0.337842 0.662158 0.786018 0.213982 0.51449 0.48551 0.5 0.5 0.5 0.5 0.5 0.5 0.5 0.5 0.5 0.5 0.5 0.5 0.5 0.5 0.5 0.5 0.5 0.5 0.5 0.5 0.5 0.5 0.5 0.5 0.5 0.5 0.5 0.5 0.5 0.5 0.5 0.5 0.5 0.5 0.5 0.5 0.5 0.5 0.5 0.5 0.5 0.5 0.5 0.5 0.5 0.5 0.5 0.5 0.5 0.5 0.5 0.5 0.5 0.5 0.5 0.5 0.5 0.5 0.5 0.5 0.5 0.5 0.5 0.5 0.5 0.5 0.5 0.5 0.5 0.5 0.5 0.5 0.5 0.5 0.5 0.5 0.5 0.5 0.5 0.5 0.5 0.5 0.5 0.5 0.5 0.5 0.5 0.5 0.5 0.5 0.5 0.5 0.5 0.5 0.5 0.5 0.5 0.5 0.5 0.5 0.5 0.5 0.5 0.5 0.5 0.5 0.5 0.5 0.5 0.5 0.5 0.5 0.5 0.5 0.5 0.5 0.5 0.5 0.5 0.5 0.5 0.5 0.5 0.5 0.5 0.5 0.5 0.5 0.5 0.5 0.5 0.5 0.5 0.5 0.5 0.5 0.5 0.5 0.5 0.5 0.5 0.5 0.5 0.5 0.5 0.5 0.5 0.5 0.5 0.5 0.5 0.5 0.5 0.5 0.5 0.5 0.5 0.5 0.5 0.5 0.5 0.5 0.5 0.5 0.5 0.5 0.5 0.5 0.5 0.5 0.5 0.5 0.5 0.5 0.5 0.5 0.5 0.5 0.5 0.5 0.5 0.5 0.5 0.5 0.5 0.5 0.5 0.5 0.5 0.5 0.5 0.5 0.5 0.5 0.5 0.5 0.5 0.5 0.5 0.5 0.5 0.5 0.5 0.5 0.5 0.5 0.5 0.5 0.452506 0.5474939999999999 0.462219 0.5377810000000001 0.369191 0.630809 0.258519 0.7414810000000001 0.5 0.5 0.5 0.5 0.5 0.5 0.5 0.5 0.5 0.5 0.5 0.5 0.0928839 0.9071161 0.818794 0.18120599999999998 0.161902 0.838098 0.296276 0.703724 0.5 0.5 0.5 0.5 0.5 0.5 0.5 0.5 0.5 0.5 0.5 0.5 0.5 0.5 0.5 0.5 0.5 0.5 0.5 0.5 0.5 0.5 0.5 0.5 0.5 0.5 0.5 0.5 0.5 0.5 0.5 0.5 0.5 0.5 0.5 0.5 0.5 0.5 0.5 0.5 0.5 0.5 0.5 0.5 0.5 0.5 0.5 0.5 0.5 0.5 0.5 0.5 0.5 0.5 0.5 0.5 0.5 0.5 0.5 0.5 0.5 0.5 0.5 0.5 0.5 0.5 0.5 0.5 0.5 0.5 0.5 0.5 0.5 0.5 0.5 0.5 0.5 0.5 0.5 0.5 0.5 0.5 0.5 0.5 0.5 0.5 0.5 0.5 0.5 0.5 0.5 0.5 0.5 0.5 0.5 0.5 0.5 0.5 0.5 0.5 0.735402 0.264598 0.668933 0.331067 0.800791 0.19920899999999997 0.550299 0.449701 0.5 0.5 0.5 0.5 0.5 0.5 0.5 0.5 0.5 0.5 0.5 0.5 0.5 0.5 0.5 0.5 0.5 0.5 0.5 0.5 0.5 0.5 0.5 0.5 0.5 0.5 0.5 0.5 0.5 0.5 0.5 0.5 0.5 0.5 0.5 0.5 0.115531 0.884469 0.918802 0.08119799999999999 0.0054299 0.9945701 0.0239389 0.9760611 0.5 0.5 0.5 0.5 0.5 0.5 0.5 0.5 0.5 0.5 0.5 0.5 0.5 0.5 0.5 0.5 0.5 0.5 0.5 0.5 0.5 0.5 0.5 0.5 0.5 0.5 0.5 0.5 0.5 0.5 0.5 0.5 0.299552 0.700448 0.825362 0.17463799999999996 0.918116 0.08188399999999996 0.274515 0.7254849999999999 0.836918 0.16308199999999995 0.279945 0.720055 0.964833 0.03516699999999995 0.491122 0.5088779999999999 0.789562 0.21043800000000001 0.695625 0.30437499999999995 0.528446 0.47155400000000003 0.894942 0.10505799999999998
-1 2 0
1 -2 0
-2 3 0
2 -3 0
-3 4 0
3 -4 0
-4 -5 0
4 5 0
-5 -109 6 0
-5 109 -6 0
5 -110 6 0
5 110 -6 0
-6 -7 0
6 7 0
-7 -8 0
7 8 0
-8 -9 0
8 9 0
-9 -10 0
9 10 0
-1 11 0
1 -11 0
-11 -2 -12 0
-11 2 12 0
11 -2 12 0
11 2 -12 0
-12 -3 -13 0
-12 3 -13 0
12 -3 13 0
12 3 -13 0
-13 -4 -14 0
-13 4 -14 0
13 -4 14 0
13 4 -14 0
-14 -5 -15 0
-14 5 15 0
14 -5 15 0
14 5 -15 0
-15 -6 -16 0
-15 6 -16 0
15 -6 16 0
15 6 -16 0
-16 -7 17 0
-16 7 -17 0
16 -7 17 0
16 7 -17 0
-17 -8 -18 0
-17 8 -18 0
17 -8 18 0
17 8 18 0
-18 -9 -149 19 0
-18 -9 149 -19 0
-18 9 -150 19 0
-18 9 150 -19 0
18 -9 -151 19 0
18 -9 151 -19 0
18 9 -152 19 0
18 9 152 -19 0
-19 -10 -20 0
-19 10 -20 0
19 -10 20 0
19 10 20 0
-11 21 0
11 -21 0
-21 -12 -22 0
-21 12 -22 0
21 -12 22 0
21 12 -22 0
-22 -13 23 0
-22 13 -23 0
22 -13 23 0
22 13 23 0
-23 -14 -24 0
-23 14 24 0
23 -14 24 0
23 14 -24 0
-24 -15 -25 0
-24 15 25 0
24 -15 -25 0
24 15 25 0
-25 -16 26 0
-25 16 26 0
25 -16 -26 0
25 16 26 0
-26 -17 27 0
-26 17 27 0
26 -17 -27 0
26 17 -27 0
-27 -18 -28 0
-27 18 -28 0
27 -18 28 0
27 18 -28 0
-28 -19 -29 0
-28 19 29 0
28 -19 -29 0
28 19 29 0
-29 -20 -30 0
-29 20 -30 0
29 -20 30 0
29 20 -30 0
-21 -195 31 0
-21 195 -31 0
21 -196 31 0
21 196 -31 0
-31 -22 -32 0
-31 22 32 0
31 -22 -32 0
31 22 32 0
-32 -23 33 0
-32 23 -33 0
32 -23 33 0
32 23 -33 0
-33 -24 34 0
-33 24 34 0
33 -24 34 0
33 24 -34 0
-34 -25 -35 0
-34 25 35 0
34 -25 -35 0
34 25 -35 0
-35 -26 36 0
-35 26 36 0
35 -26 -36 0
35 26 36 0
-36 -27 -37 0
-36 27 -37 0
36 -27 37 0
36 27 37 0
-37 -28 38 0
-37 28 38 0
37 -28 38 0
37 28 -38 0
-38 -29 -39 0
-38 29 39 0
38 -29 39 0
38 29 39 0
-39 -30 -229 40 0
-39 -30 229 -40 0
-39 30 -230 40 0
-39 30 230 -40 0
39 -30 -231 40 0
39 -30 231 -40 0
39 30 -232 40 0
39 30 232 -40 0
-31 41 0
31 -41 0
-41 -32 -235 42 0
-41 -32 235 -42 0
-41 32 -236 42 0
-41 32 236 -42 0
41 -32 -237 42 0
41 -32 237 -42 0
41 32 -238 42 0
41 32 238 -42 0
-42 -33 -43 0
-42 33 43 0
42 -33 -43 0
42 33 43 0
-43 -34 -44 0
-43 34 -44 0
43 -34 44 0
43 34 44 0
-44 -35 -45 0
-44 35 -45 0
44 -35 45 0
44 35 -45 0
-45 -36 -46 0
-45 36 46 0
45 -36 46 0
45 36 46 0
-46 -37 47 0
-46 37 -47 0
46 -37 47 0
46 37 -47 0
-47 -38 48 0
-47 38 -48 0
47 -38 -48 0
47 38 48 0
-48 -39 49 0
-48 39 -49 0
48 -39 -49 0
48 39 -49 0
-49 -40 -50 0
-49 40 -50 0
49 -40 50 0
49 40 50 0
-41 51 0
41 -51 0
-51 -42 52 0
-51 42 52 0
51 -42 -52 0
51 42 -52 0
-52 -43 53 0
-52 43 -53 0
52 -43 -53 0
52 43 53 0
-53 -44 -54 0
-53 44 -54 0
53 -44 54 0
53 44 -54 0
-54 -45 55 0
-54 45 -55 0
54 -45 -55 0
54 45 -55 0
-55 -46 56 0
-55 46 -56 0
55 -46 56 0
55 46 56 0
-56 -47 -57 0
-56 47 -57 0
56 -47 -57 0
56 47 57 0
-57 -48 58 0
-57 48 -58 0
57 -48 -58 0
57 48 -58 0
-58 -49 59 0
-58 49 -59 0
58 -49 -59 0
58 49 -59 0
-59 -50 60 0
-59 50 -60 0
59 -50 -60 0
59 50 60 0
-51 -61 0
51 61 0
-61 -52 -62 0
-61 52 -62 0
61 -52 62 0
61 52 62 0
-62 -53 -63 0
-62 53 -63 0
62 -53 63 0
62 53 -63 0
-63 -54 -64 0
-63 54 64 0
63 -54 64 0
63 54 -64 0
-64 -55 65 0
-64 55 -65 0
64 -55 -65 0
64 55 65 0
-65 -56 -66 0
-65 56 -66 0
65 -56 -66 0
65 56 66 0
-66 -57 -67 0
-66 57 -67 0
66 -57 67 0
66 57 -67 0
-67 -58 -68 0
-67 58 -68 0
67 -58 -68 0
67 58 68 0
-68 -59 69 0
-68 59 69 0
68 -59 -69 0
68 59 69 0
-69 -60 -343 70 0
-69 -60 343 -70 0
-69 60 -344 70 0
-69 60 344 -70 0
69 -60 -345 70 0
69 -60 345 -70 0
69 60 -346 70 0
69 60 346 -70 0
-61 71 0
61 -71 0
-71 -62 72 0
-71 62 72 0
71 -62 72 0
71 62 -72 0
-72 -63 -353 73 0
-72 -63 353 -73 0
-72 63 -354 73 0
-72 63 354 -73 0
72 -63 -355 73 0
72 -63 355 -73 0
72 63 -356 73 0
72 63 356 -73 0
-73 -64 -74 0
-73 64 -74 0
73 -64 74 0
73 64 74 0
-74 -65 75 0
-74 65 -75 0
74 -65 75 0
74 65 -75 0
-75 -66 -76 0
-75 66 -76 0
75 -66 -76 0
75 66 76 0
-76 -67 77 0
-76 67 77 0
76 -67 -77 0
76 67 -77 0
-77 -68 -78 0
-77 68 78 0
77 -68 78 0
77 68 78 0
-78 -69 -79 0
-78 69 79 0
78 -69 79 0
78 69 -79 0
-79 -70 -80 0
-79 70 -80 0
79 -70 80 0
79 70 -80 0
-71 81 0
71 -81 0
-81 -72 -82 0
-81 72 -82 0
81 -72 82 0
81 72 82 0
-82 -73 83 0
-82 73 83 0
82 -73 -83 0
82 73 83 0
-83 -74 84 0
-83 74 -84 0
83 -74 -84 0
83 74 84 0
-84 -75 -85 0
-84 75 85 0
84 -75 85 0
84 75 -85 0
-85 -76 -86 0
-85 76 86 0
85 -76 86 0
85 76 86 0
-86 -77 -407 87 0
-86 -77 407 -87 0
-86 77 -408 87 0
-86 77 408 -87 0
86 -77 -409 87 0
86 -77 409 -87 0
86 77 -410 87 0
86 77 410 -87 0
-87 -78 88 0
-87 78 88 0
87 -78 -88 0
87 78 -88 0
-88 -79 89 0
-88 79 -89 0
88 -79 -89 0
88 79 89 0
-89 -80 -90 0
-89 80 -90 0
89 -80 90 0
89 80 -90 0
-81 91 0
81 -91 0
-91 -82 92 0
-91 82 -92 0
91 -82 92 0
91 82 92 0
-92 -83 -429 93 0
-92 -83 429 -93 0
-92 83 -430 93 0
-92 83 430 -93 0
92 -83 -431 93 0
92 -83 431 -93 0
92 83 -432 93 0
92 83 432 -93 0
-93 -84 94 0
-93 84 94 0
93 -84 -94 0
93 84 94 0
-94 -85 95 0
-94 85 95 0
94 -85 95 0
94 85 -95 0
-95 -86 -96 0
-95 86 96 0
95 -86 96 0
95 86 -96 0
-96 -87 97 0
-96 87 -97 0
96 -87 97 0
96 87 -97 0
-97 -88 -449 98 0
-97 -88 449 -98 0
-97 88 -450 98 0
-97 88 450 -98 0
97 -88 -451 98 0
97 -88 451 -98 0
97 88 -452 98 0
97 88 452 -98 0
-98 -89 -453 99 0
-98 -89 453 -99 0
-98 89 -454 99 0
-98 89 454 -99 0
98 -89 -455 99 0
98 -89 455 -99 0
98 89 -456 99 0
98 89 456 -99 0
-99 -90 -457 100 0
-99 -90 457 -100 0
-99 90 -458 100 0
-99 90 458 -100 0
99 -90 -459 100 0
99 -90 459 -100 0
99 90 -460 100 0
99 90 460 -100 0
100 0
