data/benchmarks/bayes/90-10-5-q.gr
p tw 460 389
7 17
67 68
99 100
67 77
83 430
8 9
8 18
40 50
87 409
41 42
73 74
41 51
25 34
73 83
97 449
14 15
14 24
89 454
74 75
74 84
100 460
15 16
47 48
15 25
47 57
59 68
42 235
48 49
93 429
39 229
48 58
80 90
69 346
81 82
33 42
81 91
18 151
22 23
84 93
22 32
66 75
55 56
7 16
55 65
58 67
40 49
73 82
32 41
14 23
100 459
65 74
47 56
6 15
30 232
21 22
21 31
80 89
39 48
86 407
54 55
69 345
9 151
54 64
99 453
87 88
92 432
87 97
28 29
72 355
28 38
88 89
88 98
29 30
61 62
93 432
61 71
2 3
2 12
62 63
94 95
99 457
3 4
35 36
35 45
95 96
100 458
36 37
68 69
68 78
30 231
31 196
69 70
41 237
69 79
9 150
54 63
13 22
88 452
60 344
43 44
43 53
92 431
87 96
46 55
72 354
76 77
28 37
76 86
79 88
20 29
2 11
63 354
77 410
53 62
99 456
35 44
9 10
86 95
9 19
68 77
27 36
42 43
42 52
41 236
60 69
75 76
75 85
9 149
88 451
16 17
60 343
16 26
98 455
92 430
90 460
49 50
40 230
49 59
82 83
5 110
82 92
23 24
23 33
83 84
63 353
77 409
24 25
56 57
98 450
56 66
57 58
89 90
89 99
30 40
31 32
32 235
34 43
19 152
64 65
98 454
90 459
5 6
67 76
83 429
97 98
40 229
8 17
87 408
70 346
5 109
82 91
6 110
89 453
77 408
74 83
73 356
98 449
56 65
15 24
89 98
48 57
63 64
63 73
4 5
4 14
18 150
97 452
22 31
37 38
19 151
37 47
98 453
55 64
90 458
42 238
70 80
29 39
11 12
87 407
39 232
11 21
70 345
62 72
44 45
44 54
32 238
3 13
73 355
36 46
96 97
18 19
18 28
83 432
10 20
69 344
18 149
97 451
89 456
85 86
21 196
88 97
42 237
77 78
29 38
77 87
93 431
39 231
86 410
62 71
51 52
3 12
51 61
73 354
100 457
36 45
30 230
31 195
69 78
10 19
69 343
25 26
25 35
99 460
43 52
17 18
17 27
72 353
76 85
42 236
50 60
77 86
93 430
86 409
83 93
99 455
24 34
84 85
84 94
9 18
57 67
30 229
58 59
58 68
42 51
41 235
90 100
31 41
91 92
75 84
88 450
32 33
99 459
32 42
16 25
64 74
92 429
5 15
65 66
17 26
65 75
49 58
6 7
6 16
98 99
50 59
39 40
39 49
23 32
86 408
83 92
9 152
99 454
72 73
60 346
24 33
72 82
57 66
72 356
30 39
90 99
63 356
88 449
99 458
64 73
38 39
5 14
38 48
71 72
71 81
41 238
12 13
12 22
6 109
13 14
77 407
45 46
13 23
45 55
60 345
72 81
46 47
78 79
46 56
78 88
40 232
19 20
19 29
79 80
79 89
63 72
52 53
20 30
4 13
52 62
63 355
53 54
19 150
53 63
37 46
85 95
98 452
26 27
90 457
26 36
86 87
38 47
86 96
70 79
27 28
27 37
70 344
12 21
60 70
44 53
32 237
1 2
1 11
93 94
45 54
98 456
18 27
78 87
83 431
40 231
19 28
87 410
52 61
97 450
89 455
19 149
85 94
98 451
21 195
59 60
26 35
59 69
39 230
92 93
70 343
33 34
33 43
18 152
32 236
34 35
66 67
34 44
73 353
66 76
7 8
